Running for instance ./models/c206.txt
Generating routes...
Execution time:  3.196958  seconds
Academic license - for non-commercial use only
Warning: constraint name "Cliente esta na rota x1" has a space
Optimize a model with 26 rows, 10000 columns and 68064 nonzeros
Variable types: 0 continuous, 10000 integer (0 binary)
Coefficient statistics:
  Matrix range     [1e+00, 1e+00]
  Objective range  [2e+01, 3e+02]
  Bounds range     [1e+00, 1e+00]
  RHS range        [1e+00, 2e+01]
Found heuristic solution: objective 557.4411943
Presolve removed 2 rows and 4021 columns
Presolve time: 0.07s
Presolved: 24 rows, 5979 columns, 35204 nonzeros
Found heuristic solution: objective 539.3711068
Variable types: 0 continuous, 5979 integer (5979 binary)

Root relaxation: objective 2.862750e+02, 98 iterations, 0.01 seconds

    Nodes    |    Current Node    |     Objective Bounds      |     Work
 Expl Unexpl |  Obj  Depth IntInf | Incumbent    BestBd   Gap | It/Node Time

     0     0  286.27499    0   15  539.37111  286.27499  46.9%     -    0s
H    0     0                     389.1353798  286.27499  26.4%     -    0s
     0     0  286.27499    0   15  389.13538  286.27499  26.4%     -    0s
H    0     0                     300.1121769  286.27499  4.61%     -    0s
H    0     1                     295.1380643  286.27499  3.00%     -    0s

Explored 1 nodes (98 simplex iterations) in 0.16 seconds
Thread count was 8 (of 8 available processors)

Solution count 4: 295.138 300.112 389.135 539.371 

Optimal solution found (tolerance 1.00e-04)
Best objective 2.951380642959e+02, best bound 2.951380642959e+02, gap 0.0000%

Routes:
24 18 19 16 14 12 15
5 2 1 7 3 4
22 20 6 23 25 17 13 9 10 11 8 21

Distance: 295.138064296
Execution time:  4.227281  seconds
